p edges 1423 2046
n 1 3e+20
n 2 2e+20
n 3 2e+20
n 4 2e+20
n 5 2e+20
n 6 1e+20
n 7 2e+20
n 8 2e+20
n 9 1e+20
n 10 1e+20
n 11 3e+20
n 12 2e+20
n 13 2e+20
n 14 1e+20
n 15 1e+20
n 16 2e+20
n 17 2e+20
n 18 1e+20
n 19 1e+20
n 20 2e+20
n 21 2e+20
n 22 1e+20
n 23 1e+20
n 24 3e+20
n 25 2e+20
n 26 2e+20
n 27 1e+20
n 28 1e+20
n 29 2e+20
n 30 2e+20
n 31 1e+20
n 32 1e+20
n 33 2e+20
n 34 2e+20
n 35 1e+20
n 36 1e+20
n 37 3e+20
n 38 2e+20
n 39 2e+20
n 40 2e+20
n 41 2e+20
n 42 3e+20
n 43 2e+20
n 44 2e+20
n 45 2e+20
n 46 2e+20
n 47 1e+20
n 48 2e+20
n 49 2e+20
n 50 1e+20
n 51 1e+20
n 52 1e+20
n 53 2e+20
n 54 2e+20
n 55 1e+20
n 56 1e+20
n 57 3e+20
n 58 2e+20
n 59 2e+20
n 60 2e+20
n 61 1e+20
n 62 2e+20
n 63 1e+20
n 64 1e+20
n 65 1e+20
n 66 2e+20
n 67 2e+20
n 68 1e+20
n 69 1e+20
n 70 3e+20
n 71 2e+20
n 72 2e+20
n 73 2e+20
n 74 2e+20
n 75 3e+20
n 76 2e+20
n 77 2e+20
n 78 1e+20
n 79 1e+20
n 80 2e+20
n 81 2e+20
n 82 1e+20
n 83 1e+20
n 84 2e+20
n 85 2e+20
n 86 1e+20
n 87 1e+20
n 88 1e+20
n 89 2e+20
n 90 2e+20
n 91 1e+20
n 92 1e+20
n 93 1e+20
n 94 2e+20
n 95 2e+20
n 96 1e+20
n 97 1e+20
n 98 1e+20
n 99 2e+20
n 100 1e+20
n 101 1e+20
n 102 1e+20
n 103 2e+20
n 104 2e+20
n 105 1e+20
n 106 1e+20
n 107 1e+20
n 108 2e+20
n 109 2e+20
n 110 1e+20
n 111 1e+20
n 112 1e+20
n 113 2e+20
n 114 2e+20
n 115 1e+20
n 116 1e+20
n 117 3e+20
n 118 2e+20
n 119 2e+20
n 120 2e+20
n 121 2e+20
n 122 1e+20
n 123 1e+20
n 124 1e+20
n 125 1e+20
n 126 2e+20
n 127 2e+20
n 128 1e+20
n 129 1e+20
n 130 1e+20
n 131 2e+20
n 132 2e+20
n 133 1e+20
n 134 1e+20
n 135 1e+20
n 136 2e+20
n 137 2e+20
n 138 1e+20
n 139 1e+20
n 140 1e+20
n 141 2e+20
n 142 2e+20
n 143 1e+20
n 144 1e+20
n 145 1e+20
n 146 2e+20
n 147 2e+20
n 148 1e+20
n 149 1e+20
n 150 1e+20
n 151 2e+20
n 152 2e+20
n 153 1e+20
n 154 1e+20
n 155 1e+20
n 156 2e+20
n 157 2e+20
n 158 1e+20
n 159 1e+20
n 160 7e+20
n 161 2e+20
n 162 2e+20
n 163 2e+20
n 164 2e+20
n 165 1e+20
n 166 1e+20
n 167 2e+20
n 168 2e+20
n 169 2e+20
n 170 1e+20
n 171 2e+20
n 172 1e+20
n 173 1e+20
n 174 1e+20
n 175 2e+20
n 176 2e+20
n 177 1e+20
n 178 1e+20
n 179 1e+20
n 180 2e+20
n 181 1e+20
n 182 1e+20
n 183 3e+20
n 184 2e+20
n 185 2e+20
n 186 1e+20
n 187 2e+20
n 188 1e+20
n 189 1e+20
n 190 1e+20
n 191 2e+20
n 192 1e+20
n 193 1e+20
n 194 1e+20
n 195 2e+20
n 196 1e+20
n 197 1e+20
n 198 1e+20
n 199 2e+20
n 200 2e+20
n 201 1e+20
n 202 1e+20
n 203 1e+20
n 204 2e+20
n 205 2e+20
n 206 1e+20
n 207 1e+20
n 208 3e+20
n 209 1e+20
n 210 1e+20
n 211 2e+20
n 212 1e+20
n 213 1e+20
n 214 2e+20
n 215 1e+20
n 216 1e+20
n 217 1e+20
n 218 2e+20
n 219 2e+20
n 220 1e+20
n 221 1e+20
n 222 3e+20
n 223 2e+20
n 224 2e+20
n 225 2e+20
n 226 2e+20
n 227 1e+20
n 228 2e+20
n 229 1e+20
n 230 1e+20
n 231 1e+20
n 232 1e+20
n 233 1e+20
n 234 1e+20
n 235 2e+20
n 236 1e+20
n 237 1e+20
n 238 1e+20
n 239 2e+20
n 240 2e+20
n 241 1e+20
n 242 1e+20
n 243 1e+20
n 244 2e+20
n 245 2e+20
n 246 1e+20
n 247 1e+20
n 248 1e+20
n 249 2e+20
n 250 1e+20
n 251 1e+20
n 252 3e+20
n 253 1e+20
n 254 1e+20
n 255 1e+20
n 256 1e+20
n 257 1e+20
n 258 2e+20
n 259 2e+20
n 260 1e+20
n 261 1e+20
n 262 1e+20
n 263 2e+20
n 264 1e+20
n 265 1e+20
n 266 3e+20
n 267 2e+20
n 268 2e+20
n 269 2e+20
n 270 1e+20
n 271 2e+20
n 272 2e+20
n 273 1e+20
n 274 1e+20
n 275 1e+20
n 276 2e+20
n 277 2e+20
n 278 1e+20
n 279 1e+20
n 280 1e+20
n 281 2e+20
n 282 2e+20
n 283 1e+20
n 284 1e+20
n 285 2e+20
n 286 2e+20
n 287 1e+20
n 288 1e+20
n 289 1e+20
n 290 2e+20
n 291 1e+20
n 292 1e+20
n 293 1e+20
n 294 2e+20
n 295 1e+20
n 296 1e+20
n 297 1e+20
n 298 2e+20
n 299 1e+20
n 300 1e+20
n 301 5e+20
n 302 2e+20
n 303 2e+20
n 304 2e+20
n 305 2e+20
n 306 1e+20
n 307 1e+20
n 308 2e+20
n 309 1e+20
n 310 1e+20
n 311 1e+20
n 312 2e+20
n 313 1e+20
n 314 1e+20
n 315 1e+20
n 316 2e+20
n 317 1e+20
n 318 1e+20
n 319 3e+20
n 320 2e+20
n 321 2e+20
n 322 2e+20
n 323 2e+20
n 324 1e+20
n 325 2e+20
n 326 2e+20
n 327 1e+20
n 328 1e+20
n 329 3e+20
n 330 2e+20
n 331 1e+20
n 332 1e+20
n 333 2e+20
n 334 1e+20
n 335 1e+20
n 336 2e+20
n 337 2e+20
n 338 1e+20
n 339 1e+20
n 340 3e+20
n 341 2e+20
n 342 2e+20
n 343 2e+20
n 344 2e+20
n 345 1e+20
n 346 2e+20
n 347 1e+20
n 348 1e+20
n 349 5e+20
n 350 2e+20
n 351 2e+20
n 352 2e+20
n 353 2e+20
n 354 1e+20
n 355 1e+20
n 356 2e+20
n 357 1e+20
n 358 1e+20
n 359 1e+20
n 360 2e+20
n 361 2e+20
n 362 1e+20
n 363 1e+20
n 364 1e+20
n 365 2e+20
n 366 1e+20
n 367 1e+20
n 368 1e+20
n 369 2e+20
n 370 2e+20
n 371 1e+20
n 372 1e+20
n 373 1e+20
n 374 2e+20
n 375 1e+20
n 376 1e+20
n 377 1e+20
n 378 2e+20
n 379 1e+20
n 380 1e+20
n 381 3e+20
n 382 2e+20
n 383 2e+20
n 384 1e+20
n 385 2e+20
n 386 1e+20
n 387 1e+20
n 388 1e+20
n 389 1e+20
n 390 1e+20
n 391 1e+20
n 392 2e+20
n 393 2e+20
n 394 1e+20
n 395 1e+20
n 396 3e+20
n 397 2e+20
n 398 2e+20
n 399 2e+20
n 400 5e+20
n 401 2e+20
n 402 2e+20
n 403 2e+20
n 404 2e+20
n 405 2e+20
n 406 1e+20
n 407 1e+20
n 408 2e+20
n 409 1e+20
n 410 1e+20
n 411 7e+20
n 412 2e+20
n 413 2e+20
n 414 2e+20
n 415 2e+20
n 416 2e+20
n 417 1e+20
n 418 1e+20
n 419 2e+20
n 420 2e+20
n 421 2e+20
n 422 1e+20
n 423 2e+20
n 424 1e+20
n 425 1e+20
n 426 1e+20
n 427 2e+20
n 428 1e+20
n 429 1e+20
n 430 3e+20
n 431 2e+20
n 432 2e+20
n 433 2e+20
n 434 1e+20
n 435 2e+20
n 436 1e+20
n 437 1e+20
n 438 1e+20
n 439 2e+20
n 440 1e+20
n 441 1e+20
n 442 3e+20
n 443 2e+20
n 444 1e+20
n 445 1e+20
n 446 2e+20
n 447 2e+20
n 448 1e+20
n 449 1e+20
n 450 2e+20
n 451 2e+20
n 452 1e+20
n 453 1e+20
n 454 3e+20
n 455 2e+20
n 456 2e+20
n 457 2e+20
n 458 2e+20
n 459 1e+20
n 460 2e+20
n 461 1e+20
n 462 1e+20
n 463 1e+20
n 464 2e+20
n 465 2e+20
n 466 1e+20
n 467 1e+20
n 468 1e+20
n 469 1e+20
n 470 1e+20
n 471 1e+20
n 472 1e+20
n 473 1e+20
n 474 1e+20
n 475 1e+20
n 476 1e+20
n 477 3e+20
n 478 2e+20
n 479 2e+20
n 480 2e+20
n 481 1e+20
n 482 1e+20
n 483 1e+20
n 484 1e+20
n 485 2e+20
n 486 1e+20
n 487 1e+20
n 488 1e+20
n 489 2e+20
n 490 2e+20
n 491 1e+20
n 492 1e+20
n 493 3e+20
n 494 2e+20
n 495 2e+20
n 496 2e+20
n 497 2e+20
n 498 1e+20
n 499 2e+20
n 500 1e+20
n 501 1e+20
n 502 3e+20
n 503 2e+20
n 504 2e+20
n 505 2e+20
n 506 1e+20
n 507 2e+20
n 508 1e+20
n 509 1e+20
n 510 1e+20
n 511 2e+20
n 512 1e+20
n 513 1e+20
n 514 1e+20
n 515 2e+20
n 516 2e+20
n 517 1e+20
n 518 1e+20
n 519 1e+20
n 520 2e+20
n 521 1e+20
n 522 1e+20
n 523 3e+20
n 524 2e+20
n 525 2e+20
n 526 2e+20
n 527 2e+20
n 528 3e+20
n 529 2e+20
n 530 2e+20
n 531 2e+20
n 532 3e+20
n 533 2e+20
n 534 2e+20
n 535 3e+20
n 536 2e+20
n 537 2e+20
n 538 1e+20
n 539 2e+20
n 540 2e+20
n 541 1e+20
n 542 1e+20
n 543 1e+20
n 544 1e+20
n 545 1e+20
n 546 3e+20
n 547 2e+20
n 548 2e+20
n 549 2e+20
n 550 1e+20
n 551 1e+20
n 552 1e+20
n 553 3e+20
n 554 2e+20
n 555 2e+20
n 556 2e+20
n 557 7e+20
n 558 2e+20
n 559 2e+20
n 560 2e+20
n 561 1e+20
n 562 1e+20
n 563 2e+20
n 564 2e+20
n 565 1e+20
n 566 2e+20
n 567 1e+20
n 568 1e+20
n 569 3e+20
n 570 2e+20
n 571 2e+20
n 572 2e+20
n 573 3e+20
n 574 2e+20
n 575 2e+20
n 576 3e+20
n 577 2e+20
n 578 2e+20
n 579 2e+20
n 580 3e+20
n 581 2e+20
n 582 2e+20
n 583 2e+20
n 584 3e+20
n 585 2e+20
n 586 2e+20
n 587 2e+20
n 588 1e+20
n 589 2e+20
n 590 1e+20
n 591 1e+20
n 592 1e+20
n 593 2e+20
n 594 1e+20
n 595 1e+20
n 596 1e+20
n 597 2e+20
n 598 1e+20
n 599 1e+20
n 600 1e+20
n 601 2e+20
n 602 1e+20
n 603 1e+20
n 604 1e+20
n 605 2e+20
n 606 1e+20
n 607 1e+20
n 608 5e+20
n 609 2e+20
n 610 2e+20
n 611 2e+20
n 612 1e+20
n 613 1e+20
n 614 2e+20
n 615 1e+20
n 616 1e+20
n 617 3e+20
n 618 2e+20
n 619 2e+20
n 620 2e+20
n 621 3e+20
n 622 2e+20
n 623 2e+20
n 624 3e+20
n 625 2e+20
n 626 2e+20
n 627 2e+20
n 628 1e+20
n 629 1e+20
n 630 1e+20
n 631 1e+20
n 632 2e+20
n 633 1e+20
n 634 1e+20
n 635 1e+20
n 636 2e+20
n 637 1e+20
n 638 1e+20
n 639 1e+20
n 640 2e+20
n 641 2e+20
n 642 1e+20
n 643 1e+20
n 644 1e+20
n 645 1e+20
n 646 1e+20
n 647 1e+20
n 648 2e+20
n 649 2e+20
n 650 1e+20
n 651 1e+20
n 652 1e+20
n 653 1e+20
n 654 1e+20
n 655 1e+20
n 656 1e+20
n 657 1e+20
n 658 1e+20
n 659 1e+20
n 660 2e+20
n 661 1e+20
n 662 1e+20
n 663 3e+20
n 664 2e+20
n 665 2e+20
n 666 2e+20
n 667 1e+20
n 668 2e+20
n 669 1e+20
n 670 1e+20
n 671 1e+20
n 672 2e+20
n 673 1e+20
n 674 1e+20
n 675 3e+20
n 676 2e+20
n 677 2e+20
n 678 1e+20
n 679 2e+20
n 680 1e+20
n 681 1e+20
n 682 3e+20
n 683 2e+20
n 684 2e+20
n 685 1e+20
n 686 2e+20
n 687 1e+20
n 688 1e+20
n 689 1e+20
n 690 2e+20
n 691 1e+20
n 692 1e+20
n 693 1e+20
n 694 2e+20
n 695 1e+20
n 696 1e+20
n 697 1e+20
n 698 1e+20
n 699 1e+20
n 700 1e+20
n 701 2e+20
n 702 1e+20
n 703 1e+20
n 704 1e+20
n 705 2e+20
n 706 1e+20
n 707 1e+20
n 708 1e+20
n 709 2e+20
n 710 1e+20
n 711 1e+20
n 712 3e+20
n 713 2e+20
n 714 2e+20
n 715 2e+20
n 716 1e+20
n 717 1e+20
n 718 1e+20
n 719 1e+20
n 720 1e+20
n 721 1e+20
n 722 3e+20
n 723 2e+20
n 724 2e+20
n 725 2e+20
n 726 4e+20
n 727 2e+20
n 728 2e+20
n 729 2e+20
n 730 2e+20
n 731 1e+20
n 732 1e+20
n 733 1e+20
n 734 2e+20
n 735 1e+20
n 736 1e+20
n 737 1e+20
n 738 1e+20
n 739 1e+20
n 740 3e+20
n 741 2e+20
n 742 2e+20
n 743 3e+20
n 744 1e+20
n 745 1e+20
n 746 1e+20
n 747 1e+20
n 748 1e+20
n 749 1e+20
n 750 1e+20
n 751 1e+20
n 752 1e+20
n 753 1e+20
n 754 1e+20
n 755 1e+20
n 756 1e+20
n 757 1e+20
n 758 1e+20
n 759 1e+20
n 760 1e+20
n 761 1e+20
n 762 1e+20
n 763 1e+20
n 764 1e+20
n 765 1e+20
n 766 1e+20
n 767 1e+20
n 768 3e+20
n 769 2e+20
n 770 2e+20
n 771 1e+20
n 772 1e+20
n 773 1e+20
n 774 1e+20
n 775 1e+20
n 776 1e+20
n 777 3e+20
n 778 2e+20
n 779 2e+20
n 780 1e+20
n 781 1e+20
n 782 1e+20
n 783 1e+20
n 784 1e+20
n 785 1e+20
n 786 3e+20
n 787 2e+20
n 788 2e+20
n 789 1e+20
n 790 1e+20
n 791 1e+20
n 792 5e+20
n 793 2e+20
n 794 2e+20
n 795 1e+20
n 796 1e+20
n 797 1e+20
n 798 1e+20
n 799 1e+20
n 800 1e+20
n 801 1e+20
n 802 1e+20
n 803 1e+20
n 804 1e+20
n 805 7e+20
n 806 2e+20
n 807 2e+20
n 808 1e+20
n 809 1e+20
n 810 2e+20
n 811 2e+20
n 812 1e+20
n 813 1e+20
n 814 1e+20
n 815 1e+20
n 816 1e+20
n 817 1e+20
n 818 2e+20
n 819 1e+20
n 820 1e+20
n 821 2e+20
n 822 1e+20
n 823 1e+20
n 824 1e+20
n 825 1e+20
n 826 1e+20
n 827 1e+20
n 828 1e+20
n 829 1e+20
n 830 2e+20
n 831 1e+20
n 832 1e+20
n 833 0.916291
n 834 1e+20
n 835 0.693147
n 836 1e+20
n 837 0.693147
n 838 1e+20
n 839 0.693147
n 840 1e+20
n 841 2.30259
n 842 1e+20
n 843 2.30259
n 844 1e+20
n 845 2.30259
n 846 2e+20
n 847 1e+20
n 848 2e+20
n 849 1e+20
n 850 1e+20
n 851 0.510826
n 852 1e+20
n 853 0.693147
n 854 2e+20
n 855 1e+20
n 856 1e+20
n 857 0.693147
n 858 1e+20
n 859 0.693147
n 860 2e+20
n 861 1e+20
n 862 1e+20
n 863 2.40795
n 864 1e+20
n 865 0.693147
n 866 1e+20
n 867 0.693147
n 868 1e+20
n 869 0.693147
n 870 1e+20
n 871 0.693147
n 872 1e+20
n 873 0.105361
n 874 3.4761
n 875 1e+20
n 876 1e+20
n 877 0.693147
n 878 1e+20
n 879 0.693147
n 880 1e+20
n 881 0.105361
n 882 2e+20
n 883 1e+20
n 884 1e+20
n 885 0.693147
n 886 1e+20
n 887 0.116534
n 888 1e+20
n 889 0.916291
n 890 1e+20
n 891 0.693147
n 892 1e+20
n 893 2.30259
n 894 1e+20
n 895 0.105361
n 896 1e+20
n 897 0.510826
n 898 1e+20
n 899 0.693147
n 900 3.4761
n 901 1e+20
n 902 2e+20
n 903 1e+20
n 904 1e+20
n 905 4.60517
n 906 2e+20
n 907 1e+20
n 908 1e+20
n 909 0.693147
n 910 1e+20
n 911 0.693147
n 912 1e+20
n 913 0.693147
n 914 2e+20
n 915 1e+20
n 916 1e+20
n 917 0.693147
n 918 1e+20
n 919 2.30259
n 920 1e+20
n 921 0.693147
n 922 1e+20
n 923 0.693147
n 924 1e+20
n 925 0.916291
n 926 1e+20
n 927 0.916291
n 928 1e+20
n 929 0.916291
n 930 1e+20
n 931 0.916291
n 932 1e+20
n 933 0.105361
n 934 2e+20
n 935 1e+20
n 936 1e+20
n 937 0.105361
n 938 1e+20
n 939 0.916291
n 940 1e+20
n 941 2.30259
n 942 1e+20
n 943 0.693147
n 944 1e+20
n 945 1.60944
n 946 1e+20
n 947 0.693147
n 948 1e+20
n 949 0.693147
n 950 1e+20
n 951 1e+20
n 952 1e+20
n 953 0.693147
n 954 2e+20
n 955 1e+20
n 956 1e+20
n 957 0.693147
n 958 1e+20
n 959 0.105361
n 960 1e+20
n 961 0.693147
n 962 1e+20
n 963 0.562119
n 964 1e+20
n 965 2.99573
n 966 1e+20
n 967 0.693147
n 968 1e+20
n 969 2.30259
n 970 2e+20
n 971 1e+20
n 972 1e+20
n 973 2.30259
n 974 1e+20
n 975 2.30259
n 976 1e+20
n 977 0.916291
n 978 1e+20
n 979 0.693147
n 980 2e+20
n 981 1e+20
n 982 1e+20
n 983 0.693147
n 984 1e+20
n 985 0.693147
n 986 1e+20
n 987 0.693147
n 988 1e+20
n 989 0.693147
n 990 2e+20
n 991 1e+20
n 992 1e+20
n 993 0.693147
n 994 2e+20
n 995 1e+20
n 996 1e+20
n 997 0.693147
n 998 1e+20
n 999 0.693147
n 1000 1e+20
n 1001 0.527633
n 1002 1e+20
n 1003 0.105361
n 1004 1e+20
n 1005 0.105361
n 1006 1e+20
n 1007 0.105361
n 1008 1e+20
n 1009 0.105361
n 1010 2e+20
n 1011 1e+20
n 1012 1e+20
n 1013 1.60944
n 1014 1e+20
n 1015 0.105361
n 1016 1e+20
n 1017 0.356675
n 1018 2e+20
n 1019 1e+20
n 1020 2e+20
n 1021 1e+20
n 1022 1e+20
n 1023 4.60517
n 1024 1e+20
n 1025 4.60517
n 1026 2e+20
n 1027 1e+20
n 1028 1e+20
n 1029 4.60517
n 1030 2e+20
n 1031 1e+20
n 1032 1e+20
n 1033 0.916291
n 1034 1e+20
n 1035 0.693147
n 1036 2e+20
n 1037 1e+20
n 1038 1e+20
n 1039 0.693147
n 1040 1e+20
n 1041 0.693147
n 1042 1e+20
n 1043 2.40795
n 1044 1e+20
n 1045 0.693147
n 1046 1e+20
n 1047 0.693147
n 1048 2e+20
n 1049 1e+20
n 1050 1e+20
n 1051 0.693147
n 1052 1e+20
n 1053 2.30259
n 1054 1e+20
n 1055 0.693147
n 1056 1e+20
n 1057 2.30259
n 1058 1e+20
n 1059 0.693147
n 1060 2e+20
n 1061 1e+20
n 1062 1e+20
n 1063 0.105361
n 1064 1e+20
n 1065 0.693147
n 1066 1e+20
n 1067 0.287682
n 1068 2e+20
n 1069 1e+20
n 1070 1e+20
n 1071 0.105361
n 1072 2e+20
n 1073 1e+20
n 1074 1e+20
n 1075 4.60517
n 1076 1e+20
n 1077 0.693147
n 1078 1e+20
n 1079 0.693147
n 1080 1e+20
n 1081 0.105361
n 1082 2e+20
n 1083 1e+20
n 1084 2e+20
n 1085 1e+20
n 1086 2e+20
n 1087 1e+20
n 1088 2e+20
n 1089 1e+20
n 1090 1e+20
n 1091 0.116534
n 1092 1e+20
n 1093 0.693147
n 1094 2e+20
n 1095 1e+20
n 1096 1e+20
n 1097 0.693147
n 1098 2e+20
n 1099 1e+20
n 1100 2e+20
n 1101 1e+20
n 1102 1e+20
n 1103 4.60517
n 1104 2e+20
n 1105 1e+20
n 1106 1e+20
n 1107 0.693147
n 1108 2e+20
n 1109 1e+20
n 1110 2e+20
n 1111 1e+20
n 1112 2e+20
n 1113 1e+20
n 1114 2e+20
n 1115 1e+20
n 1116 2e+20
n 1117 1e+20
n 1118 1e+20
n 1119 0.116534
n 1120 1e+20
n 1121 0.693147
n 1122 1e+20
n 1123 0.916291
n 1124 1e+20
n 1125 2.30259
n 1126 1e+20
n 1127 2.30259
n 1128 2e+20
n 1129 1e+20
n 1130 1e+20
n 1131 2.30259
n 1132 1e+20
n 1133 2.30259
n 1134 2e+20
n 1135 1e+20
n 1136 2e+20
n 1137 1e+20
n 1138 2e+20
n 1139 1e+20
n 1140 1e+20
n 1141 0.116534
n 1142 1e+20
n 1143 0.693147
n 1144 1e+20
n 1145 0.693147
n 1146 1e+20
n 1147 0.693147
n 1148 1e+20
n 1149 0.693147
n 1150 1e+20
n 1151 0.693147
n 1152 1e+20
n 1153 0.693147
n 1154 1e+20
n 1155 1e+20
n 1156 2.30259
n 1157 2e+20
n 1158 1e+20
n 1159 1e+20
n 1160 0.693147
n 1161 1e+20
n 1162 0.105361
n 1163 1e+20
n 1164 2e+20
n 1165 1e+20
n 1166 1e+20
n 1167 0.693147
n 1168 2e+20
n 1169 1e+20
n 1170 1e+20
n 1171 0.693147
n 1172 1e+20
n 1173 0.693147
n 1174 1e+20
n 1175 0.916291
n 1176 1e+20
n 1177 0.105361
n 1178 1e+20
n 1179 2.30259
n 1180 1e+20
n 1181 4.60517
n 1182 1e+20
n 1183 0.916291
n 1184 2e+20
n 1185 1e+20
n 1186 1e+20
n 1187 0.693147
n 1188 1e+20
n 1189 0.693147
n 1190 2e+20
n 1191 1e+20
n 1192 2e+20
n 1193 1e+20
n 1194 1e+20
n 1195 1.60944
n 1196 1e+20
n 1197 0.693147
n 1198 1e+20
n 1199 0.693147
n 1200 2e+20
n 1201 1e+20
n 1202 1e+20
n 1203 2.40795
n 1204 1e+20
n 1205 0.693147
n 1206 1e+20
n 1207 0.693147
n 1208 1e+20
n 1209 0.693147
n 1210 1e+20
n 1211 0.693147
n 1212 1e+20
n 1213 0.693147
n 1214 1e+20
n 1215 2.30259
n 1216 1e+20
n 1217 0.916291
n 1218 1e+20
n 1219 0.693147
n 1220 2e+20
n 1221 1e+20
n 1222 1e+20
n 1223 0.693147
n 1224 1e+20
n 1225 0.916291
n 1226 2e+20
n 1227 1e+20
n 1228 1e+20
n 1229 0.105361
n 1230 1e+20
n 1231 2.30259
n 1232 2e+20
n 1233 1e+20
n 1234 1e+20
n 1235 0.693147
n 1236 2e+20
n 1237 1e+20
n 1238 1e+20
n 1239 2.40795
n 1240 1e+20
n 1241 2.40795
n 1242 1e+20
n 1243 2.40795
n 1244 1e+20
n 1245 0.356675
n 1246 2e+20
n 1247 1e+20
n 1248 1e+20
n 1249 2.99573
n 1250 2e+20
n 1251 1e+20
n 1252 1e+20
n 1253 0.105361
n 1254 1e+20
n 1255 2.40795
n 1256 1e+20
n 1257 4.60517
n 1258 1e+20
n 1259 4.60517
n 1260 1e+20
n 1261 0.105361
n 1262 3.4761
n 1263 1e+20
n 1264 1e+20
n 1265 0.510826
n 1266 1e+20
n 1267 1e+20
n 1268 1e+20
n 1269 1e+20
n 1270 1e+20
n 1271 1e+20
n 1272 1e+20
n 1273 1e+20
n 1274 1e+20
n 1275 1e+20
n 1276 1e+20
n 1277 1e+20
n 1278 1e+20
n 1279 1e+20
n 1280 1e+20
n 1281 1e+20
n 1282 1e+20
n 1283 1e+20
n 1284 1e+20
n 1285 1e+20
n 1286 1e+20
n 1287 1e+20
n 1288 1e+20
n 1289 1e+20
n 1290 1e+20
n 1291 1e+20
n 1292 1e+20
n 1293 1e+20
n 1294 1e+20
n 1295 1e+20
n 1296 1e+20
n 1297 1e+20
n 1298 1e+20
n 1299 1e+20
n 1300 1e+20
n 1301 1e+20
n 1302 1e+20
n 1303 1e+20
n 1304 1e+20
n 1305 1e+20
n 1306 1e+20
n 1307 1e+20
n 1308 1e+20
n 1309 1e+20
n 1310 1e+20
n 1311 1e+20
n 1312 1e+20
n 1313 1e+20
n 1314 1e+20
n 1315 1e+20
n 1316 1e+20
n 1317 1e+20
n 1318 1e+20
n 1319 1e+20
n 1320 1e+20
n 1321 1e+20
n 1322 1e+20
n 1323 1e+20
n 1324 1e+20
n 1325 1e+20
n 1326 1e+20
n 1327 1e+20
n 1328 1e+20
n 1329 1e+20
n 1330 1e+20
n 1331 1e+20
n 1332 1e+20
n 1333 1e+20
n 1334 1e+20
n 1335 1e+20
n 1336 1e+20
n 1337 1e+20
n 1338 1e+20
n 1339 1e+20
n 1340 1e+20
n 1341 1e+20
n 1342 1e+20
n 1343 1e+20
n 1344 1e+20
n 1345 1e+20
n 1346 1e+20
n 1347 1e+20
n 1348 1e+20
n 1349 1e+20
n 1350 1e+20
n 1351 1e+20
n 1352 1e+20
n 1353 1e+20
n 1354 1e+20
n 1355 1e+20
n 1356 1e+20
n 1357 1e+20
n 1358 1e+20
n 1359 1e+20
n 1360 1e+20
n 1361 1e+20
n 1362 1e+20
n 1363 1e+20
n 1364 1e+20
n 1365 1e+20
n 1366 1e+20
n 1367 1e+20
n 1368 1e+20
n 1369 1e+20
n 1370 1e+20
n 1371 1e+20
n 1372 1e+20
n 1373 1e+20
n 1374 1e+20
n 1375 1e+20
n 1376 1e+20
n 1377 1e+20
n 1378 1e+20
n 1379 1e+20
n 1380 1e+20
n 1381 1e+20
n 1382 1e+20
n 1383 1e+20
n 1384 1e+20
n 1385 1e+20
n 1386 1e+20
n 1387 1e+20
n 1388 1e+20
n 1389 1e+20
n 1390 1e+20
n 1391 1e+20
n 1392 1e+20
n 1393 1e+20
n 1394 1e+20
n 1395 1e+20
n 1396 1e+20
n 1397 1e+20
n 1398 1e+20
n 1399 1e+20
n 1400 1e+20
n 1401 1e+20
n 1402 1e+20
n 1403 1e+20
n 1404 1e+20
n 1405 1e+20
n 1406 1e+20
n 1407 1e+20
n 1408 1e+20
n 1409 1e+20
n 1410 1e+20
n 1411 1e+20
n 1412 1e+20
n 1413 1e+20
n 1414 1e+20
n 1415 1e+20
n 1416 1e+20
n 1417 1e+20
n 1418 1e+20
n 1419 1e+20
n 1420 1e+20
n 1421 1e+20
n 1422 1e+20
n 1423 1e+20
e 4 5
e 5 1
e 4 2
e 4 3
e 9 10
e 10 6
e 9 7
e 9 8
e 14 15
e 15 11
e 14 12
e 14 13
e 18 19
e 19 11
e 18 16
e 18 17
e 22 23
e 23 11
e 22 20
e 22 21
e 27 28
e 28 24
e 27 25
e 27 26
e 31 32
e 32 24
e 31 29
e 31 30
e 35 36
e 36 24
e 35 33
e 35 34
e 40 41
e 41 37
e 40 38
e 40 39
e 45 46
e 46 42
e 45 43
e 45 44
e 50 51
e 51 47
e 50 48
e 50 49
e 55 56
e 56 52
e 55 53
e 55 54
e 59 60
e 60 57
e 59 26
e 59 58
e 63 64
e 64 61
e 63 58
e 63 62
e 68 69
e 69 65
e 68 66
e 68 67
e 73 74
e 74 70
e 73 71
e 73 72
e 78 79
e 79 75
e 78 76
e 78 77
e 82 83
e 83 75
e 82 80
e 82 81
e 86 87
e 87 75
e 86 84
e 86 85
e 91 92
e 92 88
e 91 89
e 91 90
e 96 97
e 97 93
e 96 94
e 96 95
e 100 101
e 101 98
e 100 99
e 100 7
e 105 106
e 106 102
e 105 103
e 105 104
e 110 111
e 111 107
e 110 108
e 110 109
e 115 116
e 116 112
e 115 113
e 115 114
e 120 121
e 121 117
e 120 118
e 120 119
e 123 124
e 124 122
e 123 114
e 123 99
e 128 129
e 129 125
e 128 126
e 128 127
e 133 134
e 134 130
e 133 131
e 133 132
e 138 139
e 139 135
e 138 136
e 138 137
e 143 144
e 144 140
e 143 141
e 143 142
e 148 149
e 149 145
e 148 146
e 148 147
e 153 154
e 154 150
e 153 151
e 153 152
e 158 159
e 159 155
e 158 156
e 158 157
e 162 163
e 163 160
e 162 161
e 162 43
e 165 166
e 166 160
e 165 164
e 165 16
e 168 169
e 169 160
e 168 167
e 168 20
e 172 173
e 173 170
e 172 171
e 172 146
e 177 178
e 178 174
e 177 175
e 177 176
e 181 182
e 182 179
e 181 157
e 181 180
e 184 185
e 185 183
e 184 104
e 184 25
e 188 189
e 189 186
e 188 180
e 188 187
e 192 193
e 193 190
e 192 67
e 192 191
e 196 197
e 197 194
e 196 3
e 196 195
e 201 202
e 202 198
e 201 199
e 201 200
e 206 207
e 207 203
e 206 204
e 206 205
e 209 210
e 210 208
e 209 13
e 209 94
e 212 213
e 213 208
e 212 211
e 212 164
e 215 216
e 216 208
e 215 214
e 215 167
e 220 221
e 221 217
e 220 218
e 220 219
e 225 226
e 226 222
e 225 223
e 225 224
e 229 230
e 230 227
e 229 224
e 229 228
e 232 233
e 233 231
e 232 137
e 232 151
e 236 237
e 237 234
e 236 205
e 236 235
e 241 242
e 242 238
e 241 239
e 241 240
e 246 247
e 247 243
e 246 244
e 246 245
e 250 251
e 251 248
e 250 249
e 250 71
e 254 255
e 255 252
e 254 253
e 254 30
e 256 257
e 257 252
e 256 253
e 256 34
e 260 261
e 261 252
e 260 258
e 260 259
e 264 265
e 265 262
e 264 263
e 264 141
e 268 269
e 269 266
e 268 54
e 268 267
e 273 274
e 274 270
e 273 271
e 273 272
e 278 279
e 279 275
e 278 276
e 278 277
e 283 284
e 284 280
e 283 281
e 283 282
e 287 288
e 288 253
e 287 285
e 287 286
e 291 292
e 292 289
e 291 187
e 291 290
e 295 296
e 296 293
e 295 272
e 295 294
e 299 300
e 300 297
e 299 49
e 299 298
e 303 304
e 304 301
e 303 191
e 303 302
e 306 307
e 307 301
e 306 305
e 306 80
e 309 310
e 310 301
e 309 308
e 309 84
e 313 314
e 314 311
e 313 312
e 313 244
e 317 318
e 318 315
e 317 316
e 317 171
e 322 323
e 323 319
e 322 320
e 322 321
e 327 328
e 328 324
e 327 325
e 327 326
e 331 332
e 332 329
e 331 330
e 331 89
e 334 335
e 335 329
e 334 333
e 334 305
e 338 339
e 339 329
e 338 336
e 338 337
e 343 344
e 344 340
e 343 341
e 343 342
e 347 348
e 348 345
e 347 302
e 347 346
e 351 352
e 352 349
e 351 350
e 351 113
e 354 355
e 355 349
e 354 17
e 354 353
e 357 358
e 358 349
e 357 21
e 357 356
e 362 363
e 363 359
e 362 360
e 362 361
e 366 367
e 367 364
e 366 365
e 366 66
e 371 372
e 372 368
e 371 369
e 371 370
e 375 376
e 376 373
e 375 195
e 375 374
e 379 380
e 380 377
e 379 378
e 379 263
e 382 383
e 383 381
e 382 176
e 382 271
e 386 387
e 387 384
e 386 132
e 386 385
e 389 390
e 390 388
e 389 346
e 389 325
e 394 395
e 395 391
e 394 392
e 394 393
e 398 399
e 399 396
e 398 147
e 398 397
e 403 404
e 404 400
e 403 401
e 403 402
e 406 407
e 407 400
e 406 353
e 406 405
e 409 410
e 410 400
e 409 356
e 409 408
e 414 415
e 415 411
e 414 412
e 414 413
e 417 418
e 418 411
e 417 416
e 417 29
e 420 421
e 421 411
e 420 419
e 420 33
e 424 425
e 425 422
e 424 423
e 424 249
e 428 429
e 429 426
e 428 427
e 428 330
e 432 433
e 433 430
e 432 402
e 432 431
e 436 437
e 437 434
e 436 109
e 436 435
e 440 441
e 441 438
e 440 439
e 440 239
e 444 445
e 445 442
e 444 282
e 444 443
e 448 449
e 449 442
e 448 446
e 448 447
e 452 453
e 453 442
e 452 450
e 452 451
e 457 458
e 458 454
e 457 455
e 457 456
e 461 462
e 462 459
e 461 460
e 461 126
e 466 467
e 467 463
e 466 464
e 466 465
e 469 470
e 470 468
e 469 374
e 469 455
e 472 473
e 473 471
e 472 435
e 472 131
e 475 476
e 476 474
e 475 228
e 475 53
e 479 480
e 480 477
e 479 290
e 479 478
e 482 483
e 483 481
e 482 259
e 482 199
e 486 487
e 487 484
e 486 485
e 486 365
e 491 492
e 492 488
e 491 489
e 491 490
e 496 497
e 497 493
e 496 494
e 496 495
e 500 501
e 501 498
e 500 413
e 500 499
e 504 505
e 505 502
e 504 490
e 504 503
e 508 509
e 509 506
e 508 507
e 508 218
e 512 513
e 513 510
e 512 385
e 512 511
e 517 518
e 518 514
e 517 515
e 517 516
e 521 522
e 522 519
e 521 520
e 521 341
e 526 527
e 527 523
e 526 524
e 526 525
e 530 531
e 531 528
e 530 529
e 530 464
e 533 534
e 534 532
e 533 443
e 533 489
e 536 537
e 537 535
e 536 267
e 536 285
e 541 542
e 542 538
e 541 539
e 541 540
e 544 545
e 545 543
e 544 431
e 544 204
e 548 549
e 549 546
e 548 547
e 548 103
e 551 552
e 552 550
e 551 235
e 551 48
e 555 556
e 556 553
e 555 499
e 555 554
e 558 559
e 559 557
e 558 321
e 558 539
e 561 562
e 562 557
e 561 560
e 561 333
e 563 564
e 564 557
e 563 337
e 563 308
e 567 568
e 568 565
e 567 127
e 567 566
e 571 572
e 572 569
e 571 554
e 571 570
e 574 575
e 575 573
e 574 219
e 574 547
e 578 579
e 579 576
e 578 577
e 578 76
e 582 583
e 583 580
e 582 503
e 582 581
e 586 587
e 587 584
e 586 585
e 586 2
e 590 591
e 591 588
e 590 511
e 590 589
e 594 595
e 595 592
e 594 581
e 594 593
e 598 599
e 599 596
e 598 456
e 598 597
e 602 603
e 603 600
e 602 601
e 602 136
e 606 607
e 607 604
e 606 95
e 606 605
e 609 610
e 610 608
e 609 200
e 609 12
e 612 613
e 613 608
e 612 611
e 612 211
e 615 616
e 616 608
e 615 614
e 615 214
e 619 620
e 620 617
e 619 77
e 619 618
e 622 623
e 623 621
e 622 525
e 622 350
e 626 627
e 627 624
e 626 495
e 626 625
e 629 630
e 630 628
e 629 90
e 629 258
e 633 634
e 634 631
e 633 142
e 633 632
e 637 638
e 638 635
e 637 636
e 637 423
e 642 643
e 643 639
e 642 640
e 642 641
e 645 646
e 646 644
e 645 593
e 645 520
e 650 651
e 651 647
e 650 648
e 650 649
e 653 654
e 654 652
e 653 240
e 653 320
e 657 658
e 658 655
e 657 656
e 657 245
e 661 662
e 662 659
e 661 660
e 661 108
e 665 666
e 666 663
e 665 298
e 665 664
e 669 670
e 670 667
e 669 8
e 669 668
e 673 674
e 674 671
e 673 393
e 673 672
e 676 677
e 677 675
e 676 62
e 676 156
e 680 681
e 681 678
e 680 679
e 680 161
e 683 684
e 684 682
e 683 597
e 683 360
e 687 688
e 688 685
e 687 605
e 687 686
e 691 692
e 692 689
e 691 570
e 691 690
e 695 696
e 696 693
e 695 694
e 695 427
e 698 699
e 699 697
e 698 342
e 698 460
e 702 703
e 703 700
e 702 686
e 702 701
e 706 707
e 707 704
e 706 625
e 706 705
e 710 711
e 711 708
e 710 709
e 710 392
e 714 715
e 715 712
e 714 326
e 714 713
e 717 718
e 718 716
e 717 370
e 717 485
e 720 721
e 721 719
e 720 465
e 720 709
e 724 725
e 725 722
e 724 723
e 724 660
e 727 728
e 728 726
e 727 39
e 727 118
e 731 732
e 732 726
e 731 729
e 731 730
e 735 736
e 736 733
e 735 277
e 735 734
e 738 739
e 739 737
e 738 649
e 738 439
e 741 742
e 742 740
e 741 672
e 741 640
e 744 745
e 745 743
e 744 632
e 744 369
e 746 747
e 747 743
e 746 447
e 746 560
e 748 749
e 749 743
e 748 451
e 748 336
e 751 752
e 752 750
e 751 397
e 751 312
e 754 755
e 755 753
e 754 72
e 754 648
e 757 758
e 758 756
e 757 713
e 757 276
e 760 761
e 761 759
e 760 286
e 760 515
e 763 764
e 764 762
e 763 618
e 763 524
e 766 767
e 767 765
e 766 664
e 766 694
e 769 770
e 770 768
e 769 734
e 769 494
e 772 773
e 773 771
e 772 705
e 772 723
e 775 776
e 776 774
e 775 44
e 775 601
e 778 779
e 779 777
e 778 516
e 778 175
e 781 782
e 782 780
e 781 152
e 781 585
e 784 785
e 785 783
e 784 361
e 784 401
e 787 788
e 788 786
e 787 589
e 787 316
e 790 791
e 791 789
e 790 701
e 790 223
e 793 794
e 794 792
e 793 540
e 793 38
e 795 796
e 796 792
e 795 81
e 795 416
e 797 798
e 798 792
e 797 85
e 797 419
e 800 801
e 801 799
e 800 119
e 800 679
e 803 804
e 804 802
e 803 566
e 803 636
e 806 807
e 807 805
e 806 641
e 806 281
e 808 809
e 809 805
e 808 405
e 808 446
e 810 811
e 811 805
e 810 408
e 810 450
e 813 814
e 814 812
e 813 690
e 813 577
e 816 817
e 817 815
e 816 294
e 816 378
e 819 820
e 820 818
e 819 730
e 819 611
e 822 823
e 823 818
e 822 821
e 822 614
e 825 826
e 826 824
e 825 478
e 825 412
e 828 829
e 829 827
e 828 668
e 828 529
e 1 830
e 2 830
e 1 831
e 3 831
e 6 832
e 7 832
e 6 833
e 8 833
e 11 834
e 12 834
e 11 835
e 13 835
e 11 836
e 16 836
e 11 837
e 17 837
e 11 838
e 20 838
e 11 839
e 21 839
e 24 840
e 25 840
e 24 841
e 26 841
e 24 842
e 29 842
e 24 843
e 30 843
e 24 844
e 33 844
e 24 845
e 34 845
e 37 846
e 38 846
e 37 847
e 39 847
e 42 848
e 43 848
e 42 849
e 44 849
e 47 850
e 48 850
e 47 851
e 49 851
e 52 852
e 53 852
e 52 853
e 54 853
e 57 854
e 26 854
e 57 855
e 58 855
e 61 856
e 58 856
e 61 857
e 62 857
e 65 858
e 66 858
e 65 859
e 67 859
e 70 860
e 71 860
e 70 861
e 72 861
e 75 862
e 76 862
e 75 863
e 77 863
e 75 864
e 80 864
e 75 865
e 81 865
e 75 866
e 84 866
e 75 867
e 85 867
e 88 868
e 89 868
e 88 869
e 90 869
e 93 870
e 94 870
e 93 871
e 95 871
e 98 872
e 99 872
e 98 873
e 7 873
e 874 875
e 729 875
e 102 876
e 103 876
e 102 877
e 104 877
e 107 878
e 108 878
e 107 879
e 109 879
e 112 880
e 113 880
e 112 881
e 114 881
e 117 882
e 118 882
e 117 883
e 119 883
e 122 884
e 114 884
e 122 885
e 99 885
e 125 886
e 126 886
e 125 887
e 127 887
e 130 888
e 131 888
e 130 889
e 132 889
e 135 890
e 136 890
e 135 891
e 137 891
e 140 892
e 141 892
e 140 893
e 142 893
e 145 894
e 146 894
e 145 895
e 147 895
e 150 896
e 151 896
e 150 897
e 152 897
e 155 898
e 156 898
e 155 899
e 157 899
e 900 901
e 821 901
e 160 902
e 161 902
e 160 903
e 43 903
e 160 904
e 164 904
e 160 905
e 16 905
e 160 906
e 167 906
e 160 907
e 20 907
e 170 908
e 171 908
e 170 909
e 146 909
e 174 910
e 175 910
e 174 911
e 176 911
e 179 912
e 157 912
e 179 913
e 180 913
e 183 914
e 104 914
e 183 915
e 25 915
e 186 916
e 180 916
e 186 917
e 187 917
e 190 918
e 67 918
e 190 919
e 191 919
e 194 920
e 3 920
e 194 921
e 195 921
e 198 922
e 199 922
e 198 923
e 200 923
e 203 924
e 204 924
e 203 925
e 205 925
e 208 926
e 13 926
e 208 927
e 94 927
e 208 928
e 211 928
e 208 929
e 164 929
e 208 930
e 214 930
e 208 931
e 167 931
e 217 932
e 218 932
e 217 933
e 219 933
e 222 934
e 223 934
e 222 935
e 224 935
e 227 936
e 224 936
e 227 937
e 228 937
e 231 938
e 137 938
e 231 939
e 151 939
e 234 940
e 205 940
e 234 941
e 235 941
e 238 942
e 239 942
e 238 943
e 240 943
e 243 944
e 244 944
e 243 945
e 245 945
e 248 946
e 249 946
e 248 947
e 71 947
e 252 948
e 258 948
e 252 949
e 259 949
e 252 950
e 30 950
e 252 951
e 34 951
e 262 952
e 263 952
e 262 953
e 141 953
e 266 954
e 54 954
e 266 955
e 267 955
e 270 956
e 271 956
e 270 957
e 272 957
e 275 958
e 276 958
e 275 959
e 277 959
e 280 960
e 281 960
e 280 961
e 282 961
e 253 962
e 285 962
e 253 963
e 286 963
e 289 964
e 187 964
e 289 965
e 290 965
e 293 966
e 272 966
e 293 967
e 294 967
e 297 968
e 49 968
e 297 969
e 298 969
e 301 970
e 191 970
e 301 971
e 302 971
e 301 972
e 305 972
e 301 973
e 80 973
e 301 974
e 308 974
e 301 975
e 84 975
e 311 976
e 312 976
e 311 977
e 244 977
e 315 978
e 316 978
e 315 979
e 171 979
e 319 980
e 320 980
e 319 981
e 321 981
e 324 982
e 325 982
e 324 983
e 326 983
e 329 984
e 330 984
e 329 985
e 89 985
e 329 986
e 333 986
e 329 987
e 305 987
e 329 988
e 336 988
e 329 989
e 337 989
e 340 990
e 341 990
e 340 991
e 342 991
e 345 992
e 302 992
e 345 993
e 346 993
e 349 994
e 350 994
e 349 995
e 113 995
e 349 996
e 17 996
e 349 997
e 353 997
e 349 998
e 21 998
e 349 999
e 356 999
e 359 1000
e 360 1000
e 359 1001
e 361 1001
e 364 1002
e 365 1002
e 364 1003
e 66 1003
e 368 1004
e 369 1004
e 368 1005
e 370 1005
e 373 1006
e 195 1006
e 373 1007
e 374 1007
e 377 1008
e 378 1008
e 377 1009
e 263 1009
e 381 1010
e 176 1010
e 381 1011
e 271 1011
e 384 1012
e 132 1012
e 384 1013
e 385 1013
e 388 1014
e 346 1014
e 388 1015
e 325 1015
e 391 1016
e 392 1016
e 391 1017
e 393 1017
e 396 1018
e 147 1018
e 396 1019
e 397 1019
e 400 1020
e 401 1020
e 400 1021
e 402 1021
e 400 1022
e 353 1022
e 400 1023
e 405 1023
e 400 1024
e 356 1024
e 400 1025
e 408 1025
e 411 1026
e 412 1026
e 411 1027
e 413 1027
e 411 1028
e 416 1028
e 411 1029
e 29 1029
e 411 1030
e 419 1030
e 411 1031
e 33 1031
e 422 1032
e 423 1032
e 422 1033
e 249 1033
e 426 1034
e 427 1034
e 426 1035
e 330 1035
e 430 1036
e 402 1036
e 430 1037
e 431 1037
e 434 1038
e 109 1038
e 434 1039
e 435 1039
e 438 1040
e 439 1040
e 438 1041
e 239 1041
e 442 1042
e 282 1042
e 442 1043
e 443 1043
e 442 1044
e 446 1044
e 442 1045
e 447 1045
e 442 1046
e 450 1046
e 442 1047
e 451 1047
e 454 1048
e 455 1048
e 454 1049
e 456 1049
e 459 1050
e 460 1050
e 459 1051
e 126 1051
e 463 1052
e 464 1052
e 463 1053
e 465 1053
e 468 1054
e 374 1054
e 468 1055
e 455 1055
e 471 1056
e 435 1056
e 471 1057
e 131 1057
e 474 1058
e 228 1058
e 474 1059
e 53 1059
e 477 1060
e 290 1060
e 477 1061
e 478 1061
e 481 1062
e 259 1062
e 481 1063
e 199 1063
e 484 1064
e 485 1064
e 484 1065
e 365 1065
e 488 1066
e 489 1066
e 488 1067
e 490 1067
e 493 1068
e 494 1068
e 493 1069
e 495 1069
e 498 1070
e 413 1070
e 498 1071
e 499 1071
e 502 1072
e 490 1072
e 502 1073
e 503 1073
e 506 1074
e 507 1074
e 506 1075
e 218 1075
e 510 1076
e 385 1076
e 510 1077
e 511 1077
e 514 1078
e 515 1078
e 514 1079
e 516 1079
e 519 1080
e 520 1080
e 519 1081
e 341 1081
e 523 1082
e 524 1082
e 523 1083
e 525 1083
e 528 1084
e 529 1084
e 528 1085
e 464 1085
e 532 1086
e 443 1086
e 532 1087
e 489 1087
e 535 1088
e 267 1088
e 535 1089
e 285 1089
e 538 1090
e 539 1090
e 538 1091
e 540 1091
e 543 1092
e 431 1092
e 543 1093
e 204 1093
e 546 1094
e 547 1094
e 546 1095
e 103 1095
e 550 1096
e 235 1096
e 550 1097
e 48 1097
e 553 1098
e 499 1098
e 553 1099
e 554 1099
e 557 1100
e 321 1100
e 557 1101
e 539 1101
e 557 1102
e 560 1102
e 557 1103
e 333 1103
e 557 1104
e 337 1104
e 557 1105
e 308 1105
e 565 1106
e 127 1106
e 565 1107
e 566 1107
e 569 1108
e 554 1108
e 569 1109
e 570 1109
e 573 1110
e 219 1110
e 573 1111
e 547 1111
e 576 1112
e 577 1112
e 576 1113
e 76 1113
e 580 1114
e 503 1114
e 580 1115
e 581 1115
e 584 1116
e 585 1116
e 584 1117
e 2 1117
e 588 1118
e 511 1118
e 588 1119
e 589 1119
e 592 1120
e 581 1120
e 592 1121
e 593 1121
e 596 1122
e 456 1122
e 596 1123
e 597 1123
e 600 1124
e 601 1124
e 600 1125
e 136 1125
e 604 1126
e 95 1126
e 604 1127
e 605 1127
e 608 1128
e 200 1128
e 608 1129
e 12 1129
e 608 1130
e 611 1130
e 608 1131
e 211 1131
e 608 1132
e 614 1132
e 608 1133
e 214 1133
e 617 1134
e 77 1134
e 617 1135
e 618 1135
e 621 1136
e 525 1136
e 621 1137
e 350 1137
e 624 1138
e 495 1138
e 624 1139
e 625 1139
e 628 1140
e 90 1140
e 628 1141
e 258 1141
e 631 1142
e 142 1142
e 631 1143
e 632 1143
e 635 1144
e 636 1144
e 635 1145
e 423 1145
e 639 1146
e 640 1146
e 639 1147
e 641 1147
e 644 1148
e 593 1148
e 644 1149
e 520 1149
e 647 1150
e 648 1150
e 647 1151
e 649 1151
e 652 1152
e 240 1152
e 652 1153
e 320 1153
e 655 1154
e 245 1154
e 659 1155
e 660 1155
e 659 1156
e 108 1156
e 663 1157
e 298 1157
e 663 1158
e 664 1158
e 667 1159
e 8 1159
e 667 1160
e 668 1160
e 671 1161
e 393 1161
e 671 1162
e 672 1162
e 656 1163
e 245 1163
e 675 1164
e 62 1164
e 675 1165
e 156 1165
e 678 1166
e 679 1166
e 678 1167
e 161 1167
e 682 1168
e 597 1168
e 682 1169
e 360 1169
e 685 1170
e 605 1170
e 685 1171
e 686 1171
e 689 1172
e 570 1172
e 689 1173
e 690 1173
e 693 1174
e 694 1174
e 693 1175
e 427 1175
e 697 1176
e 342 1176
e 697 1177
e 460 1177
e 700 1178
e 686 1178
e 700 1179
e 701 1179
e 704 1180
e 625 1180
e 704 1181
e 705 1181
e 708 1182
e 709 1182
e 708 1183
e 392 1183
e 712 1184
e 326 1184
e 712 1185
e 713 1185
e 716 1186
e 370 1186
e 716 1187
e 485 1187
e 719 1188
e 465 1188
e 719 1189
e 709 1189
e 722 1190
e 723 1190
e 722 1191
e 660 1191
e 726 1192
e 39 1192
e 726 1193
e 118 1193
e 726 1194
e 729 1194
e 726 1195
e 730 1195
e 733 1196
e 277 1196
e 733 1197
e 734 1197
e 737 1198
e 649 1198
e 737 1199
e 439 1199
e 740 1200
e 672 1200
e 740 1201
e 640 1201
e 743 1202
e 632 1202
e 743 1203
e 369 1203
e 743 1204
e 447 1204
e 743 1205
e 560 1205
e 743 1206
e 451 1206
e 743 1207
e 336 1207
e 750 1208
e 397 1208
e 750 1209
e 312 1209
e 753 1210
e 72 1210
e 753 1211
e 648 1211
e 756 1212
e 713 1212
e 756 1213
e 276 1213
e 759 1214
e 286 1214
e 759 1215
e 515 1215
e 762 1216
e 618 1216
e 762 1217
e 524 1217
e 765 1218
e 664 1218
e 765 1219
e 694 1219
e 768 1220
e 734 1220
e 768 1221
e 494 1221
e 771 1222
e 705 1222
e 771 1223
e 723 1223
e 774 1224
e 44 1224
e 774 1225
e 601 1225
e 777 1226
e 516 1226
e 777 1227
e 175 1227
e 780 1228
e 152 1228
e 780 1229
e 585 1229
e 783 1230
e 361 1230
e 783 1231
e 401 1231
e 786 1232
e 589 1232
e 786 1233
e 316 1233
e 789 1234
e 701 1234
e 789 1235
e 223 1235
e 792 1236
e 540 1236
e 792 1237
e 38 1237
e 792 1238
e 81 1238
e 792 1239
e 416 1239
e 792 1240
e 85 1240
e 792 1241
e 419 1241
e 799 1242
e 119 1242
e 799 1243
e 679 1243
e 802 1244
e 566 1244
e 802 1245
e 636 1245
e 805 1246
e 641 1246
e 805 1247
e 281 1247
e 805 1248
e 405 1248
e 805 1249
e 446 1249
e 805 1250
e 408 1250
e 805 1251
e 450 1251
e 812 1252
e 690 1252
e 812 1253
e 577 1253
e 815 1254
e 294 1254
e 815 1255
e 378 1255
e 818 1256
e 730 1256
e 818 1257
e 611 1257
e 818 1258
e 821 1258
e 818 1259
e 614 1259
e 824 1260
e 478 1260
e 824 1261
e 412 1261
e 1262 1263
e 507 1263
e 827 1264
e 668 1264
e 827 1265
e 529 1265
e 507 1266
e 218 1266
e 218 1267
e 219 1267
e 103 1268
e 104 1268
e 25 1269
e 26 1269
e 58 1270
e 62 1270
e 156 1271
e 157 1271
e 157 1272
e 180 1272
e 180 1273
e 187 1273
e 187 1274
e 290 1274
e 478 1275
e 412 1275
e 413 1276
e 499 1276
e 570 1277
e 690 1277
e 690 1278
e 577 1278
e 76 1279
e 77 1279
e 618 1280
e 524 1280
e 113 1281
e 114 1281
e 114 1282
e 99 1282
e 99 1283
e 7 1283
e 7 1284
e 8 1284
e 8 1285
e 668 1285
e 668 1286
e 529 1286
e 464 1287
e 465 1287
e 465 1288
e 709 1288
e 709 1289
e 392 1289
e 392 1290
e 393 1290
e 393 1291
e 672 1291
e 640 1292
e 641 1292
e 281 1293
e 282 1293
e 282 1294
e 443 1294
e 489 1295
e 490 1295
e 581 1296
e 593 1296
e 593 1297
e 520 1297
e 520 1298
e 341 1298
e 342 1299
e 460 1299
e 460 1300
e 126 1300
e 126 1301
e 127 1301
e 127 1302
e 566 1302
e 566 1303
e 636 1303
e 636 1304
e 423 1304
e 423 1305
e 249 1305
e 249 1306
e 71 1306
e 72 1307
e 648 1307
e 648 1308
e 649 1308
e 649 1309
e 439 1309
e 439 1310
e 239 1310
e 239 1311
e 240 1311
e 240 1312
e 320 1312
e 539 1313
e 540 1313
e 119 1314
e 679 1314
e 679 1315
e 161 1315
e 44 1316
e 601 1316
e 601 1317
e 136 1317
e 136 1318
e 137 1318
e 137 1319
e 151 1319
e 151 1320
e 152 1320
e 152 1321
e 585 1321
e 3 1322
e 195 1322
e 195 1323
e 374 1323
e 374 1324
e 455 1324
e 456 1325
e 597 1325
e 360 1326
e 361 1326
e 361 1327
e 401 1327
e 431 1328
e 204 1328
e 204 1329
e 205 1329
e 205 1330
e 235 1330
e 235 1331
e 48 1331
e 48 1332
e 49 1332
e 49 1333
e 298 1333
e 664 1334
e 694 1334
e 694 1335
e 427 1335
e 427 1336
e 330 1336
e 330 1337
e 89 1337
e 89 1338
e 90 1338
e 90 1339
e 258 1339
e 258 1340
e 259 1340
e 259 1341
e 199 1341
e 199 1342
e 200 1342
e 12 1343
e 13 1343
e 13 1344
e 94 1344
e 94 1345
e 95 1345
e 95 1346
e 605 1346
e 605 1347
e 686 1347
e 686 1348
e 701 1348
e 701 1349
e 223 1349
e 224 1350
e 228 1350
e 228 1351
e 53 1351
e 53 1352
e 54 1352
e 285 1353
e 286 1353
e 286 1354
e 515 1354
e 515 1355
e 516 1355
e 175 1356
e 176 1356
e 271 1357
e 272 1357
e 272 1358
e 294 1358
e 294 1359
e 378 1359
e 378 1360
e 263 1360
e 263 1361
e 141 1361
e 141 1362
e 142 1362
e 142 1363
e 632 1363
e 632 1364
e 369 1364
e 369 1365
e 370 1365
e 370 1366
e 485 1366
e 485 1367
e 365 1367
e 365 1368
e 66 1368
e 66 1369
e 67 1369
e 67 1370
e 191 1370
e 302 1371
e 346 1371
e 346 1372
e 325 1372
e 325 1373
e 326 1373
e 713 1374
e 276 1374
e 276 1375
e 277 1375
e 277 1376
e 734 1376
e 625 1377
e 705 1377
e 705 1378
e 723 1378
e 660 1379
e 108 1379
e 108 1380
e 109 1380
e 109 1381
e 435 1381
e 435 1382
e 131 1382
e 131 1383
e 132 1383
e 132 1384
e 385 1384
e 385 1385
e 511 1385
e 511 1386
e 589 1386
e 316 1387
e 171 1387
e 171 1388
e 146 1388
e 146 1389
e 147 1389
e 397 1390
e 312 1390
e 312 1391
e 244 1391
e 244 1392
e 245 1392
e 729 1393
e 730 1393
e 730 1394
e 611 1394
e 611 1395
e 211 1395
e 211 1396
e 164 1396
e 164 1397
e 16 1397
e 16 1398
e 17 1398
e 17 1399
e 353 1399
e 353 1400
e 405 1400
e 405 1401
e 446 1401
e 446 1402
e 447 1402
e 447 1403
e 560 1403
e 560 1404
e 333 1404
e 333 1405
e 305 1405
e 305 1406
e 80 1406
e 80 1407
e 81 1407
e 81 1408
e 416 1408
e 416 1409
e 29 1409
e 29 1410
e 30 1410
e 821 1411
e 614 1411
e 614 1412
e 214 1412
e 214 1413
e 167 1413
e 20 1414
e 21 1414
e 21 1415
e 356 1415
e 356 1416
e 408 1416
e 450 1417
e 451 1417
e 451 1418
e 336 1418
e 336 1419
e 337 1419
e 308 1420
e 84 1420
e 84 1421
e 85 1421
e 85 1422
e 419 1422
e 33 1423
e 34 1423
